(set-logic HORN)
(set-info :source |
    Benchmark: C_VC
    Output by Princess (http://www.philipp.ruemmer.org/princess.shtml)
|)
(set-info :status sat)
(declare-heap Heap Addr HeapObject
 defObj
 ((HeapObject 0) (node 0)) (
  (
   (O_Int (getInt Int))
   (O_UInt (getUInt Int))
   (O_Addr (getAddr Addr))
   (O_node (getnode node))
   (defObj)
  )
  (
   (node (next Addr) (prev Addr) (data Int))
  )
))
(declare-fun inv_main101 (Heap Int Int Addr Int Addr Int Addr Addr) Bool)
(declare-fun inv_main104 (Heap Int Int Addr Int Addr Int) Bool)
(declare-fun inv_main12 (Heap Int Int Int Int Int Addr) Bool)
(declare-fun inv_main15 (Heap Int Int Int Int Int Addr Int) Bool)
(declare-fun inv_main18 (Heap Int Int Int Int Int Addr) Bool)
(declare-fun inv_main19 (Heap Int Int Int Int Int Addr) Bool)
(declare-fun inv_main22 (Heap Int Int Int Int Addr Addr) Bool)
(declare-fun inv_main23 (Heap Int Int Int Int Addr Addr) Bool)
(declare-fun inv_main29 (Heap Int Int Int Int Addr Addr Int Addr) Bool)
(declare-fun inv_main32 (Heap Int Int Int Int Addr Addr Int Addr Int) Bool)
(declare-fun inv_main35 (Heap Int Int Int Int Addr Addr Int Addr) Bool)
(declare-fun inv_main36 (Heap Int Int Int Int Addr Addr Int Addr) Bool)
(declare-fun inv_main38 (Heap Int Int Int Int Addr Addr Addr) Bool)
(declare-fun inv_main4 (Heap Int Int) Bool)
(declare-fun inv_main41 (Heap Int Int Int Int Addr Addr Addr) Bool)
(declare-fun inv_main44 (Heap Int Int Int Int Addr Addr) Bool)
(declare-fun inv_main56 (Heap Int Int Addr Int Int Int Int Addr) Bool)
(declare-fun inv_main59 (Heap Int Int Addr Int Int Int Int Addr Int) Bool)
(declare-fun inv_main62 (Heap Int Int Addr Int Int Int Int Addr) Bool)
(declare-fun inv_main63 (Heap Int Int Addr Int Int Int Int Addr) Bool)
(declare-fun inv_main67 (Heap Int Int Addr Int Int Int Addr) Bool)
(declare-fun inv_main68 (Heap Int Int Addr Int Int Int Addr) Bool)
(declare-fun inv_main69 (Heap Int Int Addr Int Int Int Addr) Bool)
(declare-fun inv_main72 (Heap Int Int Addr Int Int Int Addr Addr Addr) Bool)
(declare-fun inv_main73 (Heap Int Int Addr Int Int Int Addr Addr Addr) Bool)
(declare-fun inv_main74 (Heap Int Int Addr Int Int Int Addr Addr Addr) Bool)
(declare-fun inv_main75 (Heap Int Int Addr Int Int Int Addr Addr Addr) Bool)
(declare-fun inv_main76 (Heap Int Int Addr Int Addr) Bool)
(declare-fun inv_main77 (Heap Int Int Addr Int Addr) Bool)
(declare-fun inv_main82 (Heap Int Int Addr Int Addr Int) Bool)
(declare-fun inv_main85 (Heap Int Int Addr Int Addr Int) Bool)
(declare-fun inv_main97 (Heap Int Int Addr Int Addr Int Addr) Bool)
(assert (forall ((var0 Heap)) (or (not (= var0 emptyHeap)) (inv_main4 var0 2 1))))
(assert (forall ((var0 Int) (var1 Addr) (var2 Addr) (var3 Int) (var4 Int) (var5 Int) (var6 Int) (var7 node) (var8 Heap) (var9 Addr) (var10 Addr) (var11 Addr) (var12 Int) (var13 Int) (var14 Int) (var15 Int) (var16 Heap)) (or (not (and (inv_main22 var16 var15 var14 var13 var12 var11 var10) (and (and (not (= nullAddr var9)) (and (and (and (and (and (and (and (and (= var8 (newHeap (alloc var16 (O_node var7)))) (= var6 var15)) (= var5 var14)) (= var4 var13)) (= var3 var12)) (= var2 var11)) (= var1 var10)) (= var0 var12)) (= var9 (newAddr (alloc var16 (O_node var7)))))) (<= 0 (+ (+ var13 (- 1)) (- 1)))))) (inv_main29 var8 var6 var5 var4 var3 var2 var1 var0 var9))))
(assert (forall ((var0 Int) (var1 Addr) (var2 Int) (var3 Addr) (var4 Int) (var5 Int) (var6 Heap)) (or (not (and (inv_main82 var6 var5 var4 var3 var2 var1 var0) (and (is-O_node (read var6 var1)) (not (= var4 (data (getnode (read var6 var1)))))))) (inv_main104 var6 var5 var4 var3 var2 var1 var0))))
(assert (forall ((var0 Addr) (var1 Int) (var2 Int) (var3 Heap) (var4 Addr) (var5 Addr) (var6 Int) (var7 Int) (var8 Int) (var9 Addr) (var10 Int) (var11 Addr) (var12 Int) (var13 Int) (var14 Heap)) (or (not (and (inv_main85 var14 var13 var12 var11 var10 var9 var8) (and (not (= (+ var7 1) (+ 1 var6))) (and (= var5 var4) (and (is-O_node (read var14 var9)) (and (and (and (and (and (and (and (= var3 var14) (= var6 var13)) (= var2 var12)) (= var4 var11)) (= var1 var10)) (= var0 var9)) (= var7 var8)) (= var5 (next (getnode (read var14 var9)))))))))) (inv_main104 var3 var6 var2 var4 var1 var5 (+ var7 1)))))
(assert (forall ((var0 Int) (var1 Addr) (var2 Int) (var3 Addr) (var4 Int) (var5 Int) (var6 Heap)) (or (not (and (inv_main76 var6 var5 var4 var3 var2 var1) (and (is-O_node (read var6 var1)) (not (= var2 (data (getnode (read var6 var1)))))))) (inv_main104 var6 var5 var4 var3 var2 var1 var0))))
(assert (forall ((var0 Addr) (var1 Int) (var2 Addr) (var3 Addr) (var4 Int) (var5 Int) (var6 Int) (var7 Int) (var8 Heap)) (or (not (and (inv_main29 var8 var7 var6 var5 var4 var3 var2 var1 var0) (is-O_node (read var8 var0)))) (inv_main35 (write var8 var0 (O_node (node nullAddr (prev (getnode (read var8 var0))) (data (getnode (read var8 var0)))))) var7 var6 var5 var4 var3 var2 var1 var0))))
(assert (forall ((var0 Addr) (var1 Addr) (var2 Int) (var3 Int) (var4 Int) (var5 Int) (var6 Heap)) (or (not (and (inv_main22 var6 var5 var4 var3 var2 var1 var0) (not (<= 0 (+ (+ var3 (- 1)) (- 1)))))) (inv_main23 var6 var5 var4 var3 var2 var1 var0))))
(assert (forall ((var0 Int) (var1 Addr) (var2 Int) (var3 Int) (var4 Int) (var5 Heap) (var6 Addr) (var7 Addr) (var8 Int) (var9 Addr) (var10 Int) (var11 Addr) (var12 Int) (var13 Int) (var14 Heap)) (or (not (and (inv_main85 var14 var13 var12 var11 var10 var9 var8) (and (not (= var7 var6)) (and (is-O_node (read var14 var9)) (and (and (and (and (and (and (and (= var5 var14) (= var4 var13)) (= var3 var12)) (= var6 var11)) (= var2 var10)) (= var1 var9)) (= var0 var8)) (= var7 (next (getnode (read var14 var9))))))))) (inv_main82 var5 var4 var3 var6 var2 var7 (+ var0 1)))))
(assert (forall ((var0 Addr) (var1 Addr) (var2 Int) (var3 Addr) (var4 Int) (var5 Int) (var6 Heap) (var7 Addr) (var8 Int) (var9 Addr) (var10 Int) (var11 Int) (var12 Heap)) (or (not (and (inv_main77 var12 var11 var10 var9 var8 var7) (and (is-O_node (read var12 var7)) (and (and (and (and (and (and (= var6 var12) (= var5 var11)) (= var4 var10)) (= var3 var9)) (= var2 var8)) (= var1 var7)) (= var0 (next (getnode (read var12 var7)))))))) (inv_main82 var6 var5 var4 var3 var2 var0 1))))
(assert (forall ((var0 Addr) (var1 Int) (var2 Addr) (var3 Addr) (var4 Int) (var5 Int) (var6 Int) (var7 Int) (var8 Heap)) (or (not (and (inv_main35 var8 var7 var6 var5 var4 var3 var2 var1 var0) (is-O_node (read var8 var0)))) (inv_main36 (write var8 var0 (O_node (node (next (getnode (read var8 var0))) nullAddr (data (getnode (read var8 var0)))))) var7 var6 var5 var4 var3 var2 var1 var0))))
(assert (forall ((var0 Addr) (var1 Int) (var2 Addr) (var3 Int) (var4 Int) (var5 Heap)) (or (not (and (inv_main76 var5 var4 var3 var2 var1 var0) (and (is-O_node (read var5 var0)) (= var1 (data (getnode (read var5 var0))))))) (inv_main77 var5 var4 var3 var2 var1 var0))))
(assert (forall ((var0 Addr) (var1 Int) (var2 Int) (var3 Int) (var4 Int) (var5 Int) (var6 Heap)) (or (not (and (inv_main18 var6 var5 var4 var3 var2 var1 var0) (is-O_node (read var6 var0)))) (inv_main19 (write var6 var0 (O_node (node (next (getnode (read var6 var0))) nullAddr (data (getnode (read var6 var0)))))) var5 var4 var3 var2 var1 var0))))
(assert (forall ((var0 Int) (var1 Addr) (var2 Int) (var3 Addr) (var4 Addr) (var5 Int) (var6 Int) (var7 Int) (var8 Int) (var9 Heap)) (or (not (inv_main32 var9 var8 var7 var6 var5 var4 var3 var2 var1 var0)) (inv_main32 var9 var8 var7 var6 var5 var4 var3 var2 var1 var0))))
(assert (forall ((var0 Int) (var1 Addr) (var2 Addr) (var3 Int) (var4 Int) (var5 Int) (var6 Int) (var7 node) (var8 Heap) (var9 Addr) (var10 Addr) (var11 Addr) (var12 Int) (var13 Int) (var14 Int) (var15 Int) (var16 Heap)) (or (not (and (inv_main22 var16 var15 var14 var13 var12 var11 var10) (and (and (= nullAddr var9) (and (and (and (and (and (and (and (and (= var8 (newHeap (alloc var16 (O_node var7)))) (= var6 var15)) (= var5 var14)) (= var4 var13)) (= var3 var12)) (= var2 var11)) (= var1 var10)) (= var0 var12)) (= var9 (newAddr (alloc var16 (O_node var7)))))) (<= 0 (+ (+ var13 (- 1)) (- 1)))))) (inv_main32 var8 var6 var5 var4 var3 var2 var1 var0 var9 1))))
(assert (forall ((var0 Addr) (var1 Int) (var2 Int) (var3 Int) (var4 Int) (var5 Addr) (var6 Int) (var7 Int) (var8 Heap)) (or (not (and (inv_main62 var8 var7 var6 var5 var4 var3 var2 var1 var0) (is-O_node (read var8 var0)))) (inv_main63 (write var8 var0 (O_node (node (next (getnode (read var8 var0))) nullAddr (data (getnode (read var8 var0)))))) var7 var6 var5 var4 var3 var2 var1 var0))))
(assert (forall ((var0 Addr) (var1 Int) (var2 Int) (var3 Int) (var4 Int) (var5 Int) (var6 Int) (var7 Heap) (var8 Addr) (var9 Addr) (var10 Int) (var11 Int) (var12 Int) (var13 Int) (var14 Addr) (var15 Int) (var16 Int) (var17 Heap)) (or (not (and (inv_main63 var17 var16 var15 var14 var13 var12 var11 var10 var9) (and (not (= nullAddr var8)) (and (is-O_node (read var17 var9)) (and (and (and (and (and (and (and (and (= var7 (write var17 var9 (O_node (node (next (getnode (read var17 var9))) (prev (getnode (read var17 var9))) var10)))) (= var6 var16)) (= var5 var15)) (= var8 var14)) (= var4 var13)) (= var3 var12)) (= var2 var11)) (= var1 var10)) (= var0 var9)))))) (inv_main67 var7 var6 var5 var8 var4 var3 var2 var0))))
(assert (forall ((var0 Addr) (var1 Int) (var2 Int) (var3 Int) (var4 Int) (var5 Int) (var6 Heap)) (or (not (and (inv_main12 var6 var5 var4 var3 var2 var1 var0) (is-O_node (read var6 var0)))) (inv_main18 (write var6 var0 (O_node (node nullAddr (prev (getnode (read var6 var0))) (data (getnode (read var6 var0)))))) var5 var4 var3 var2 var1 var0))))
(assert (forall ((var0 Int) (var1 Int) (var2 Int) (var3 Int) (var4 Int) (var5 node) (var6 Heap) (var7 Addr) (var8 Int) (var9 Int) (var10 Heap)) (or (not (and (inv_main4 var10 var9 var8) (and (not (= nullAddr var7)) (and (and (and (and (and (and (= var6 (newHeap (alloc var10 (O_node var5)))) (= var4 var9)) (= var3 var8)) (= var2 var9)) (= var1 var8)) (= var0 var8)) (= var7 (newAddr (alloc var10 (O_node var5)))))))) (inv_main12 var6 var4 var3 var2 var1 var0 var7))))
(assert (forall ((var0 Int) (var1 Addr) (var2 Int) (var3 Addr) (var4 Int) (var5 Int) (var6 Heap) (var7 Addr) (var8 Addr) (var9 Addr) (var10 Int) (var11 Addr) (var12 Int) (var13 Addr) (var14 Int) (var15 Int) (var16 Heap)) (or (not (and (inv_main97 var16 var15 var14 var13 var12 var11 var10 var9) (and (and (not (= var8 var7)) (is-O_node (read var16 var9))) (and (and (and (and (and (and (and (and (= var6 var16) (= var5 var15)) (= var4 var14)) (= var3 var13)) (= var2 var12)) (= var1 var11)) (= var0 var10)) (= var7 var9)) (= var8 (next (getnode (read var16 var9)))))))) (inv_main101 var6 var5 var4 var3 var2 var1 var0 var7 var8))))
(assert (forall ((var0 Addr) (var1 Int) (var2 Addr) (var3 Int) (var4 Addr) (var5 Int) (var6 Int) (var7 Heap) (var8 Addr) (var9 Addr) (var10 Addr) (var11 Int) (var12 Addr) (var13 Int) (var14 Addr) (var15 Int) (var16 Int) (var17 Heap) (var18 Addr) (var19 Addr) (var20 Addr) (var21 Addr) (var22 Int) (var23 Addr) (var24 Int) (var25 Addr) (var26 Int) (var27 Int) (var28 Heap)) (or (not (and (inv_main101 var28 var27 var26 var25 var24 var23 var22 var21 var20) (and (not (= var19 var18)) (and (and (is-O_node (read var28 var20)) (and (and (and (and (and (and (and (and (and (= var17 var28) (= var16 var27)) (= var15 var26)) (= var14 var25)) (= var13 var24)) (= var12 var23)) (= var11 var22)) (= var10 var21)) (= var9 var20)) (= var8 (next (getnode (read var28 var20)))))) (and (and (and (and (and (and (and (and (and (= var7 (write var17 var9 defObj)) (= var6 var16)) (= var5 var15)) (= var4 var14)) (= var3 var13)) (= var2 var12)) (= var1 var11)) (= var18 var10)) (= var0 var9)) (= var19 var8)))))) (inv_main101 var7 var6 var5 var4 var3 var2 var1 var18 var19))))
(assert (forall ((var0 Int) (var1 Addr) (var2 Int) (var3 Int) (var4 Int) (var5 Int) (var6 Int) (var7 Heap)) (or (not (inv_main15 var7 var6 var5 var4 var3 var2 var1 var0)) (inv_main15 var7 var6 var5 var4 var3 var2 var1 var0))))
(assert (forall ((var0 Int) (var1 Int) (var2 Int) (var3 Int) (var4 Int) (var5 node) (var6 Heap) (var7 Addr) (var8 Int) (var9 Int) (var10 Heap)) (or (not (and (inv_main4 var10 var9 var8) (and (= nullAddr var7) (and (and (and (and (and (and (= var6 (newHeap (alloc var10 (O_node var5)))) (= var4 var9)) (= var3 var8)) (= var2 var9)) (= var1 var8)) (= var0 var8)) (= var7 (newAddr (alloc var10 (O_node var5)))))))) (inv_main15 var6 var4 var3 var2 var1 var0 var7 1))))
(assert (forall ((var0 Addr) (var1 Addr) (var2 Addr) (var3 Int) (var4 Int) (var5 Int) (var6 Int) (var7 Heap) (var8 Addr) (var9 Addr) (var10 Addr) (var11 Int) (var12 Int) (var13 Int) (var14 Int) (var15 Heap)) (or (not (and (inv_main41 var15 var14 var13 var12 var11 var10 var9 var8) (and (is-O_node (read var15 var10)) (and (and (and (and (and (and (and (= var7 (write var15 var10 (O_node (node (next (getnode (read var15 var10))) var8 (data (getnode (read var15 var10))))))) (= var6 var14)) (= var5 var13)) (= var4 var12)) (= var3 var11)) (= var2 var10)) (= var1 var9)) (= var0 var8))))) (inv_main22 var7 var6 var5 (+ var4 (- 1)) var3 var0 var1))))
(assert (forall ((var0 Addr) (var1 Addr) (var2 Int) (var3 Int) (var4 Int) (var5 Int) (var6 Heap) (var7 Addr) (var8 Addr) (var9 Addr) (var10 Addr) (var11 Int) (var12 Int) (var13 Int) (var14 Int) (var15 Heap)) (or (not (and (inv_main38 var15 var14 var13 var12 var11 var10 var9 var8) (and (and (= var7 nullAddr) (is-O_node (read var15 var8))) (and (and (and (and (and (and (and (= var6 (write var15 var8 (O_node (node var10 (prev (getnode (read var15 var8))) (data (getnode (read var15 var8))))))) (= var5 var14)) (= var4 var13)) (= var3 var12)) (= var2 var11)) (= var7 var10)) (= var1 var9)) (= var0 var8))))) (inv_main22 var6 var5 var4 (+ var3 (- 1)) var2 var0 var1))))
(assert (forall ((var0 Addr) (var1 Int) (var2 Int) (var3 Int) (var4 Int) (var5 Int) (var6 Heap) (var7 Addr) (var8 Int) (var9 Int) (var10 Int) (var11 Int) (var12 Int) (var13 Heap)) (or (not (and (inv_main19 var13 var12 var11 var10 var9 var8 var7) (and (is-O_node (read var13 var7)) (and (and (and (and (and (and (= var6 (write var13 var7 (O_node (node (next (getnode (read var13 var7))) (prev (getnode (read var13 var7))) var8)))) (= var5 var12)) (= var4 var11)) (= var3 var10)) (= var2 var9)) (= var1 var8)) (= var0 var7))))) (inv_main22 var6 var5 var4 var3 var2 var0 var0))))
(assert (forall ((var0 Addr) (var1 Int) (var2 Int) (var3 Int) (var4 Int) (var5 Addr) (var6 Int) (var7 Int) (var8 Heap)) (or (not (and (inv_main56 var8 var7 var6 var5 var4 var3 var2 var1 var0) (is-O_node (read var8 var0)))) (inv_main62 (write var8 var0 (O_node (node nullAddr (prev (getnode (read var8 var0))) (data (getnode (read var8 var0)))))) var7 var6 var5 var4 var3 var2 var1 var0))))
(assert (forall ((var0 Addr) (var1 Addr) (var2 Addr) (var3 Int) (var4 Int) (var5 Int) (var6 Addr) (var7 Int) (var8 Int) (var9 Heap)) (or (not (and (inv_main72 var9 var8 var7 var6 var5 var4 var3 var2 var1 var0) (is-O_node (read var9 var2)))) (inv_main73 (write var9 var2 (O_node (node var0 (prev (getnode (read var9 var2))) (data (getnode (read var9 var2)))))) var8 var7 var6 var5 var4 var3 var2 var1 var0))))
(assert (forall ((var0 Addr) (var1 Int) (var2 Int) (var3 Int) (var4 Int) (var5 Int) (var6 Int) (var7 Heap) (var8 Addr) (var9 Addr) (var10 Int) (var11 Int) (var12 Int) (var13 Int) (var14 Addr) (var15 Int) (var16 Int) (var17 Heap)) (or (not (and (inv_main63 var17 var16 var15 var14 var13 var12 var11 var10 var9) (and (= nullAddr var8) (and (is-O_node (read var17 var9)) (and (and (and (and (and (and (and (and (= var7 (write var17 var9 (O_node (node (next (getnode (read var17 var9))) (prev (getnode (read var17 var9))) var10)))) (= var6 var16)) (= var5 var15)) (= var8 var14)) (= var4 var13)) (= var3 var12)) (= var2 var11)) (= var1 var10)) (= var0 var9)))))) (inv_main68 var7 var6 var5 var0 var4 var3 var2 var0))))
(assert (forall ((var0 Int) (var1 Addr) (var2 Int) (var3 Addr) (var4 Int) (var5 Int) (var6 Heap)) (or (not (and (inv_main82 var6 var5 var4 var3 var2 var1 var0) (and (is-O_node (read var6 var1)) (= var4 (data (getnode (read var6 var1))))))) (inv_main85 var6 var5 var4 var3 var2 var1 var0))))
(assert (forall ((var0 Addr) (var1 Int) (var2 Int) (var3 Int) (var4 Addr) (var5 Int) (var6 Int) (var7 Heap)) (or (not (and (inv_main68 var7 var6 var5 var4 var3 var2 var1 var0) (is-O_node (read var7 var0)))) (inv_main69 (write var7 var0 (O_node (node var0 (prev (getnode (read var7 var0))) (data (getnode (read var7 var0)))))) var6 var5 var4 var3 var2 var1 var0))))
(assert (forall ((var0 Addr) (var1 Addr) (var2 Int) (var3 Int) (var4 Int) (var5 Int) (var6 Heap)) (or (not (and (inv_main23 var6 var5 var4 var3 var2 var1 var0) (is-O_node (read var6 var0)))) (inv_main44 (write var6 var0 (O_node (node var1 (prev (getnode (read var6 var0))) (data (getnode (read var6 var0)))))) var5 var4 var3 var2 var1 var0))))
(assert (forall ((var0 Addr) (var1 Addr) (var2 Int) (var3 Int) (var4 Int) (var5 Addr) (var6 Int) (var7 Int) (var8 Heap) (var9 Addr) (var10 Int) (var11 Int) (var12 Int) (var13 Addr) (var14 Int) (var15 Int) (var16 Heap)) (or (not (and (inv_main67 var16 var15 var14 var13 var12 var11 var10 var9) (and (is-O_node (read var16 var13)) (and (and (and (and (and (and (and (and (= var8 var16) (= var7 var15)) (= var6 var14)) (= var5 var13)) (= var4 var12)) (= var3 var11)) (= var2 var10)) (= var1 var9)) (= var0 (prev (getnode (read var16 var13)))))))) (inv_main72 var8 var7 var6 var1 var4 var3 var2 var1 var0 var5))))
(assert (forall ((var0 Addr) (var1 Int) (var2 Int) (var3 Heap) (var4 Addr) (var5 Int) (var6 Int) (var7 Addr) (var8 Int) (var9 Addr) (var10 Int) (var11 Addr) (var12 Int) (var13 Int) (var14 Heap)) (or (not (and (inv_main85 var14 var13 var12 var11 var10 var9 var8) (and (not (= nullAddr var7)) (and (= (+ var6 1) (+ 1 var5)) (and (= var4 var7) (and (is-O_node (read var14 var9)) (and (and (and (and (and (and (and (= var3 var14) (= var5 var13)) (= var2 var12)) (= var7 var11)) (= var1 var10)) (= var0 var9)) (= var6 var8)) (= var4 (next (getnode (read var14 var9))))))))))) (inv_main97 var3 var5 var2 var7 var1 var4 (+ var6 1) var7))))
(assert (forall ((var0 Addr) (var1 Int) (var2 Int) (var3 Int) (var4 Int) (var5 Int) (var6 Int) (var7 Addr) (var8 Addr) (var9 Int) (var10 Int) (var11 Int) (var12 Int) (var13 node) (var14 Heap) (var15 Heap) (var16 Addr) (var17 Addr) (var18 Addr) (var19 Int) (var20 Int) (var21 Int) (var22 Int) (var23 Heap)) (or (not (and (inv_main44 var23 var22 var21 var20 var19 var18 var17) (and (and (not (= nullAddr var16)) (and (and (and (and (and (and (and (and (= var15 (newHeap (alloc var14 (O_node var13)))) (= var12 var11)) (= var10 var9)) (= var8 var7)) (= var6 5)) (= var5 3)) (= var4 5)) (= var3 5)) (= var16 (newAddr (alloc var14 (O_node var13)))))) (and (is-O_node (read var23 var18)) (and (and (and (and (and (and (= var14 (write var23 var18 (O_node (node (next (getnode (read var23 var18))) var17 (data (getnode (read var23 var18))))))) (= var11 var22)) (= var9 var21)) (= var2 var20)) (= var1 var19)) (= var7 var18)) (= var0 var17)))))) (inv_main56 var15 var12 var10 var8 var6 var5 var4 var3 var16))))
(assert (forall ((var0 Addr) (var1 Int) (var2 Addr) (var3 Addr) (var4 Int) (var5 Int) (var6 Int) (var7 Int) (var8 Heap) (var9 Addr) (var10 Int) (var11 Addr) (var12 Addr) (var13 Int) (var14 Int) (var15 Int) (var16 Int) (var17 Heap)) (or (not (and (inv_main36 var17 var16 var15 var14 var13 var12 var11 var10 var9) (and (is-O_node (read var17 var9)) (and (and (and (and (and (and (and (and (= var8 (write var17 var9 (O_node (node (next (getnode (read var17 var9))) (prev (getnode (read var17 var9))) var10)))) (= var7 var16)) (= var6 var15)) (= var5 var14)) (= var4 var13)) (= var3 var12)) (= var2 var11)) (= var1 var10)) (= var0 var9))))) (inv_main38 var8 var7 var6 var5 var4 var3 var2 var0))))
(assert (forall ((var0 Int) (var1 Int) (var2 Int) (var3 Addr) (var4 Int) (var5 Int) (var6 Heap) (var7 Addr) (var8 Int) (var9 Int) (var10 Int) (var11 Addr) (var12 Int) (var13 Int) (var14 Heap)) (or (not (and (inv_main69 var14 var13 var12 var11 var10 var9 var8 var7) (and (is-O_node (read var14 var7)) (and (and (and (and (and (and (= var6 (write var14 var7 (O_node (node (next (getnode (read var14 var7))) var7 (data (getnode (read var14 var7))))))) (= var5 var13)) (= var4 var12)) (= var3 var11)) (= var2 var10)) (= var1 var9)) (= var0 var8))))) (inv_main76 var6 var5 var4 var3 var2 var3))))
(assert (forall ((var0 Int) (var1 Int) (var2 Int) (var3 Addr) (var4 Int) (var5 Int) (var6 Heap) (var7 Addr) (var8 Addr) (var9 Addr) (var10 Int) (var11 Int) (var12 Int) (var13 Addr) (var14 Int) (var15 Int) (var16 Heap)) (or (not (and (inv_main75 var16 var15 var14 var13 var12 var11 var10 var9 var8 var7) (and (is-O_node (read var16 var9)) (and (and (and (and (and (and (= var6 (write var16 var9 (O_node (node (next (getnode (read var16 var9))) var8 (data (getnode (read var16 var9))))))) (= var5 var15)) (= var4 var14)) (= var3 var13)) (= var2 var12)) (= var1 var11)) (= var0 var10))))) (inv_main76 var6 var5 var4 var3 var2 var3))))
(assert (forall ((var0 Addr) (var1 Addr) (var2 Addr) (var3 Int) (var4 Int) (var5 Int) (var6 Addr) (var7 Int) (var8 Int) (var9 Heap)) (or (not (and (inv_main74 var9 var8 var7 var6 var5 var4 var3 var2 var1 var0) (is-O_node (read var9 var1)))) (inv_main75 (write var9 var1 (O_node (node var2 (prev (getnode (read var9 var1))) (data (getnode (read var9 var1)))))) var8 var7 var6 var5 var4 var3 var2 var1 var0))))
(assert (forall ((var0 Addr) (var1 Addr) (var2 Addr) (var3 Int) (var4 Int) (var5 Int) (var6 Addr) (var7 Int) (var8 Int) (var9 Heap)) (or (not (and (inv_main73 var9 var8 var7 var6 var5 var4 var3 var2 var1 var0) (is-O_node (read var9 var0)))) (inv_main74 (write var9 var0 (O_node (node (next (getnode (read var9 var0))) var2 (data (getnode (read var9 var0)))))) var8 var7 var6 var5 var4 var3 var2 var1 var0))))
(assert (forall ((var0 Int) (var1 Addr) (var2 Int) (var3 Int) (var4 Int) (var5 Int) (var6 Addr) (var7 Int) (var8 Int) (var9 Heap)) (or (not (inv_main59 var9 var8 var7 var6 var5 var4 var3 var2 var1 var0)) (inv_main59 var9 var8 var7 var6 var5 var4 var3 var2 var1 var0))))
(assert (forall ((var0 Addr) (var1 Int) (var2 Int) (var3 Int) (var4 Int) (var5 Int) (var6 Int) (var7 Addr) (var8 Addr) (var9 Int) (var10 Int) (var11 Int) (var12 Int) (var13 node) (var14 Heap) (var15 Heap) (var16 Addr) (var17 Addr) (var18 Addr) (var19 Int) (var20 Int) (var21 Int) (var22 Int) (var23 Heap)) (or (not (and (inv_main44 var23 var22 var21 var20 var19 var18 var17) (and (and (= nullAddr var16) (and (and (and (and (and (and (and (and (= var15 (newHeap (alloc var14 (O_node var13)))) (= var12 var11)) (= var10 var9)) (= var8 var7)) (= var6 5)) (= var5 3)) (= var4 5)) (= var3 5)) (= var16 (newAddr (alloc var14 (O_node var13)))))) (and (is-O_node (read var23 var18)) (and (and (and (and (and (and (= var14 (write var23 var18 (O_node (node (next (getnode (read var23 var18))) var17 (data (getnode (read var23 var18))))))) (= var11 var22)) (= var9 var21)) (= var2 var20)) (= var1 var19)) (= var7 var18)) (= var0 var17)))))) (inv_main59 var15 var12 var10 var8 var6 var5 var4 var3 var16 1))))
(assert (forall ((var0 Addr) (var1 Addr) (var2 Int) (var3 Int) (var4 Int) (var5 Int) (var6 Heap) (var7 Addr) (var8 Addr) (var9 Addr) (var10 Addr) (var11 Int) (var12 Int) (var13 Int) (var14 Int) (var15 Heap)) (or (not (and (inv_main38 var15 var14 var13 var12 var11 var10 var9 var8) (and (and (not (= var7 nullAddr)) (is-O_node (read var15 var8))) (and (and (and (and (and (and (and (= var6 (write var15 var8 (O_node (node var10 (prev (getnode (read var15 var8))) (data (getnode (read var15 var8))))))) (= var5 var14)) (= var4 var13)) (= var3 var12)) (= var2 var11)) (= var7 var10)) (= var1 var9)) (= var0 var8))))) (inv_main41 var6 var5 var4 var3 var2 var7 var1 var0))))
(assert (forall ((var0 Addr) (var1 Int) (var2 Int) (var3 Int) (var4 Int) (var5 Int) (var6 Heap)) (not (and (inv_main12 var6 var5 var4 var3 var2 var1 var0) (not (is-O_node (read var6 var0)))))))
(assert (forall ((var0 Addr) (var1 Int) (var2 Int) (var3 Int) (var4 Int) (var5 Int) (var6 Heap)) (not (and (inv_main18 var6 var5 var4 var3 var2 var1 var0) (not (is-O_node (read var6 var0)))))))
(assert (forall ((var0 Addr) (var1 Int) (var2 Int) (var3 Int) (var4 Int) (var5 Int) (var6 Heap)) (not (and (inv_main19 var6 var5 var4 var3 var2 var1 var0) (not (is-O_node (read var6 var0)))))))
(assert (forall ((var0 Addr) (var1 Int) (var2 Addr) (var3 Addr) (var4 Int) (var5 Int) (var6 Int) (var7 Int) (var8 Heap)) (not (and (inv_main29 var8 var7 var6 var5 var4 var3 var2 var1 var0) (not (is-O_node (read var8 var0)))))))
(assert (forall ((var0 Addr) (var1 Int) (var2 Addr) (var3 Addr) (var4 Int) (var5 Int) (var6 Int) (var7 Int) (var8 Heap)) (not (and (inv_main35 var8 var7 var6 var5 var4 var3 var2 var1 var0) (not (is-O_node (read var8 var0)))))))
(assert (forall ((var0 Addr) (var1 Int) (var2 Addr) (var3 Addr) (var4 Int) (var5 Int) (var6 Int) (var7 Int) (var8 Heap)) (not (and (inv_main36 var8 var7 var6 var5 var4 var3 var2 var1 var0) (not (is-O_node (read var8 var0)))))))
(assert (forall ((var0 Addr) (var1 Addr) (var2 Addr) (var3 Int) (var4 Int) (var5 Int) (var6 Int) (var7 Heap)) (not (and (inv_main38 var7 var6 var5 var4 var3 var2 var1 var0) (not (is-O_node (read var7 var0)))))))
(assert (forall ((var0 Addr) (var1 Addr) (var2 Addr) (var3 Int) (var4 Int) (var5 Int) (var6 Int) (var7 Heap)) (not (and (inv_main41 var7 var6 var5 var4 var3 var2 var1 var0) (not (is-O_node (read var7 var2)))))))
(assert (forall ((var0 Addr) (var1 Addr) (var2 Int) (var3 Int) (var4 Int) (var5 Int) (var6 Heap)) (not (and (inv_main23 var6 var5 var4 var3 var2 var1 var0) (not (is-O_node (read var6 var0)))))))
(assert (forall ((var0 Addr) (var1 Addr) (var2 Int) (var3 Int) (var4 Int) (var5 Int) (var6 Heap)) (not (and (inv_main44 var6 var5 var4 var3 var2 var1 var0) (not (is-O_node (read var6 var1)))))))
(assert (forall ((var0 Addr) (var1 Int) (var2 Int) (var3 Int) (var4 Int) (var5 Addr) (var6 Int) (var7 Int) (var8 Heap)) (not (and (inv_main56 var8 var7 var6 var5 var4 var3 var2 var1 var0) (not (is-O_node (read var8 var0)))))))
(assert (forall ((var0 Addr) (var1 Int) (var2 Int) (var3 Int) (var4 Int) (var5 Addr) (var6 Int) (var7 Int) (var8 Heap)) (not (and (inv_main62 var8 var7 var6 var5 var4 var3 var2 var1 var0) (not (is-O_node (read var8 var0)))))))
(assert (forall ((var0 Addr) (var1 Int) (var2 Int) (var3 Int) (var4 Int) (var5 Addr) (var6 Int) (var7 Int) (var8 Heap)) (not (and (inv_main63 var8 var7 var6 var5 var4 var3 var2 var1 var0) (not (is-O_node (read var8 var0)))))))
(assert (forall ((var0 Addr) (var1 Int) (var2 Int) (var3 Int) (var4 Addr) (var5 Int) (var6 Int) (var7 Heap)) (not (and (inv_main68 var7 var6 var5 var4 var3 var2 var1 var0) (not (is-O_node (read var7 var0)))))))
(assert (forall ((var0 Addr) (var1 Int) (var2 Int) (var3 Int) (var4 Addr) (var5 Int) (var6 Int) (var7 Heap)) (not (and (inv_main69 var7 var6 var5 var4 var3 var2 var1 var0) (not (is-O_node (read var7 var0)))))))
(assert (forall ((var0 Addr) (var1 Int) (var2 Int) (var3 Int) (var4 Addr) (var5 Int) (var6 Int) (var7 Heap)) (not (and (inv_main67 var7 var6 var5 var4 var3 var2 var1 var0) (not (is-O_node (read var7 var4)))))))
(assert (forall ((var0 Addr) (var1 Addr) (var2 Addr) (var3 Int) (var4 Int) (var5 Int) (var6 Addr) (var7 Int) (var8 Int) (var9 Heap)) (not (and (inv_main72 var9 var8 var7 var6 var5 var4 var3 var2 var1 var0) (not (is-O_node (read var9 var2)))))))
(assert (forall ((var0 Addr) (var1 Addr) (var2 Addr) (var3 Int) (var4 Int) (var5 Int) (var6 Addr) (var7 Int) (var8 Int) (var9 Heap)) (not (and (inv_main73 var9 var8 var7 var6 var5 var4 var3 var2 var1 var0) (not (is-O_node (read var9 var0)))))))
(assert (forall ((var0 Addr) (var1 Addr) (var2 Addr) (var3 Int) (var4 Int) (var5 Int) (var6 Addr) (var7 Int) (var8 Int) (var9 Heap)) (not (and (inv_main74 var9 var8 var7 var6 var5 var4 var3 var2 var1 var0) (not (is-O_node (read var9 var1)))))))
(assert (forall ((var0 Addr) (var1 Addr) (var2 Addr) (var3 Int) (var4 Int) (var5 Int) (var6 Addr) (var7 Int) (var8 Int) (var9 Heap)) (not (and (inv_main75 var9 var8 var7 var6 var5 var4 var3 var2 var1 var0) (not (is-O_node (read var9 var2)))))))
(assert (forall ((var0 Addr) (var1 Int) (var2 Addr) (var3 Int) (var4 Int) (var5 Heap)) (not (and (inv_main76 var5 var4 var3 var2 var1 var0) (not (is-O_node (read var5 var0)))))))
(assert (forall ((var0 Addr) (var1 Int) (var2 Addr) (var3 Int) (var4 Int) (var5 Heap)) (not (and (inv_main77 var5 var4 var3 var2 var1 var0) (not (is-O_node (read var5 var0)))))))
(assert (forall ((var0 Int) (var1 Addr) (var2 Int) (var3 Addr) (var4 Int) (var5 Int) (var6 Heap)) (not (and (inv_main82 var6 var5 var4 var3 var2 var1 var0) (not (is-O_node (read var6 var1)))))))
(assert (forall ((var0 Int) (var1 Addr) (var2 Int) (var3 Addr) (var4 Int) (var5 Int) (var6 Heap)) (not (and (inv_main85 var6 var5 var4 var3 var2 var1 var0) (not (is-O_node (read var6 var1)))))))
(assert (forall ((var0 Addr) (var1 Int) (var2 Addr) (var3 Int) (var4 Addr) (var5 Int) (var6 Int) (var7 Heap)) (not (and (inv_main97 var7 var6 var5 var4 var3 var2 var1 var0) (not (is-O_node (read var7 var0)))))))
(assert (forall ((var0 Addr) (var1 Addr) (var2 Int) (var3 Addr) (var4 Int) (var5 Addr) (var6 Int) (var7 Int) (var8 Heap)) (not (and (inv_main101 var8 var7 var6 var5 var4 var3 var2 var1 var0) (not (is-O_node (read var8 var0)))))))
(assert (forall ((var0 Int) (var1 Addr) (var2 Int) (var3 Addr) (var4 Int) (var5 Int) (var6 Heap)) (not (inv_main104 var6 var5 var4 var3 var2 var1 var0))))
(check-sat)
